V_100_6.txt

VEHICLE     CAPACITY  LOCATIONS  CUSTOMER  OPTIONS  PRIORITIES  NUMTYPS
10		150		97		100		152		3		4

CUSTOMER  DEMAND
0	 18
1	 12
2	 11
3	 19
4	 10
5	 19
6	 17
7	 19
8	 18
9	 18
10	 19
11	 16
12	 18
13	 15
14	 20
15	 15
16	 19
17	 16
18	 19
19	 16
20	 11
21	 10
22	 19
23	 17
24	 12
25	 18
26	 18
27	 10
28	 16
29	 13
30	 11
31	 12
32	 10
33	 13
34	 16
35	 16
36	 10
37	 16
38	 18
39	 18
40	 20
41	 20
42	 15
43	 10
44	 11
45	 15
46	 15
47	 11
48	 14
49	 13
50	 12
51	 20
52	 11
53	 19
54	 15
55	 16
56	 12
57	 19
58	 13
59	 14
60	 19
61	 10
62	 10
63	 20
64	 18
65	 19
66	 10
67	 18
68	 14
69	 15
70	 20
71	 17
72	 12
73	 16
74	 13
75	 12
76	 20
77	 20
78	 12
79	 17
80	 15
81	 19
82	 18
83	 11
84	 14
85	 11
86	 12
87	 10
88	 15
89	 17
90	 15
91	 12
92	 12
93	 13
94	 18
95	 13
96	 18
97	 20
98	 17
99	 20

LOCATION  XCOORD  YCOORD  CAP  READY  DUE  TYP  SERVICETIME
0		27		29		-1		0		720	 0		0
1		48		36		-1		542		602		 2		6
2		19		13		-1		611		671		 2		6
3		24		19		-1		265		325		 2		6
4		11		20		-1		404		464		 2		6
5		46		32		-1		569		629		 2		6
6		34		11		-1		329		389		 2		6
7		5		6		-1		88		148		 2		6
8		24		46		-1		322		382		 2		6
9		37		26		-1		504		564		 2		6
10		47		49		-1		40		100		 2		6
11		25		42		-1		220		280		 2		6
12		16		25		-1		117		177		 2		6
13		14		41		-1		179		239		 2		6
14		27		42		-1		43		103		 2		6
15		32		22		-1		122		182		 2		6
16		38		22		-1		230		290		 2		6
17		29		13		-1		156		216		 2		6
18		40		49		-1		382		442		 2		6
19		2		6		-1		287		347		 2		6
20		26		44		-1		94		154		 2		6
21		33		34		-1		119		179		 2		6
22		43		19		-1		264		324		 2		6
23		48		24		-1		332		392		 2		6
24		5		12		-1		588		648		 2		6
25		45		42		-1		601		661		 2		6
26		16		26		-1		247		307		 2		6
27		22		32		-1		98		158		 2		6
28		13		3		-1		575		635		 2		6
29		19		41		-1		470		530		 2		6
30		23		48		-1		109		169		 2		6
31		9		40		-1		232		292		 2		6
32		7		15		-1		630		690		 2		6
33		7		41		-1		366		426		 2		6
34		42		13		-1		87		147		 2		6
35		45		48		-1		123		183		 2		6
36		48		37		-1		92		152		 2		6
37		10		12		-1		283		343		 2		6
38		48		29		-1		500		560		 2		6
39		47		43		-1		255		315		 2		6
40		1		28		-1		294		354		 2		6
41		13		8		-1		620		680		 2		6
42		33		43		-1		118		178		 2		6
43		50		48		-1		456		516		 2		6
44		48		30		-1		288		348		 2		6
45		8		11		-1		174		234		 2		6
46		8		35		-1		225		285		 2		6
47		48		26		-1		318		378		 2		6
48		35		45		-1		358		418		 2		6
49		44		2		-1		573		633		 2		6
50		35		15		-1		126		186		 2		6
51		48		9		-1		115		175		 2		6
52		29		13		-1		558		618		 2		6
53		48		35		-1		483		543		 2		6
54		50		13		-1		293		353		 2		6
55		8		35		-1		514		574		 2		6
56		36		3		-1		54		114		 2		6
57		44		45		-1		657		717		 2		6
58		34		36		-1		284		344		 2		6
59		24		4		-1		39		99		 2		6
60		19		20		-1		38		98		 2		6
61		11		16		-1		175		235		 2		6
62		35		36		-1		132		192		 2		6
63		13		24		-1		304		364		 2		6
64		27		5		-1		441		501		 2		6
65		23		3		-1		353		413		 2		6
66		40		50		-1		341		401		 2		6
67		3		41		-1		39		99		 2		6
68		26		15		-1		204		264		 2		6
69		48		33		-1		625		685		 2		6
70		23		44		-1		91		151		 2		6
71		30		24		-1		191		251		 2		6
72		10		45		-1		411		471		 2		6
73		49		6		-1		141		201		 2		6
74		50		37		-1		386		446		 2		6
75		50		4		-1		584		644		 2		6
76		25		19		-1		305		365		 2		6
77		23		38		4		61		301		 1		4
78		24		16		5		205		445		 1		4
79		6		6		3		376		616		 1		4
80		12		10		4		137		377		 1		4
81		37		26		4		323		563		 1		4
82		11		5		4		193		433		 1		4
83		6		15		4		326		566		 1		4
84		5		5		3		408		648		 1		4
85		29		42		5		322		562		 1		4
86		42		23		5		93		333		 1		4
87		21		20		4		448		688		 1		4
88		43		11		3		280		520		 1		4
89		26		34		4		183		423		 1		4
90		24		19		3		282		522		 1		4
91		13		13		5		428		668		 1		4
92		20		45		3		253		493		 1		4
93		31		22		4		79		319		 1		4
94		13		10		4		415		655		 1		4
95		5		43		5		0		240		 1		4
96		27		6		5		459		699		 1		4
OPTION  LOCATION  CUSTOMER  PRIO  SERVICETIME   COST
0		78		0		0		2		0
1		86		1		0		2		0
2		88		2		0		2		0
3		83		3		0		2		0
4		89		4		0		2		0
5		94		5		0		2		0
6		91		6		0		2		0
7		84		7		0		2		0
8		82		8		0		2		0
9		82		9		0		2		0
10		89		10		0		2		0
11		83		11		0		2		0
12		81		12		0		2		0
13		78		13		0		2		0
14		95		14		0		2		0
15		92		15		0		2		0
16		84		16		0		2		0
17		96		17		0		2		0
18		88		18		0		2		0
19		80		19		0		2		0
20		89		20		0		2		0
21		87		21		0		2		0
22		81		22		0		2		0
23		91		23		0		2		0
24		1		24		0		5		0
25		2		25		0		5		0
26		3		26		0		5		0
27		4		27		0		5		0
28		5		28		0		5		0
29		6		29		0		5		0
30		7		30		0		5		0
31		8		31		0		5		0
32		9		32		0		5		0
33		10		33		0		5		0
34		11		34		0		5		0
35		12		35		0		5		0
36		13		36		0		5		0
37		14		37		0		5		0
38		15		38		0		5		0
39		16		39		0		5		0
40		17		40		0		5		0
41		18		41		0		5		0
42		19		42		0		5		0
43		20		43		0		5		0
44		21		44		0		5		0
45		22		45		0		5		0
46		23		46		0		5		0
47		24		47		0		5		0
48		25		48		1		5		0
49		77		48		0		2		0
50		26		49		1		5		0
51		89		49		0		2		0
52		27		50		0		5		0
53		85		50		1		2		0
54		28		51		0		5		0
55		80		51		1		2		0
56		29		52		0		5		0
57		80		52		1		2		0
58		30		53		0		5		0
59		77		53		1		2		0
60		31		54		1		5		0
61		78		54		0		2		0
62		32		55		0		5		0
63		81		55		1		2		0
64		33		56		0		5		0
65		85		56		1		2		0
66		34		57		0		5		0
67		81		57		1		2		0
68		35		58		0		5		0
69		85		58		1		2		0
70		36		59		0		5		0
71		89		59		1		2		0
72		37		60		0		5		0
73		83		60		1		2		0
74		38		61		0		5		0
75		96		61		1		2		0
76		39		62		1		5		0
77		95		62		0		2		0
78		40		63		1		5		0
79		91		63		0		2		0
80		41		64		1		5		0
81		90		64		0		2		0
82		42		65		0		5		0
83		92		65		1		2		0
84		43		66		1		5		0
85		86		66		0		2		0
86		44		67		1		5		0
87		85		67		0		2		0
88		45		68		0		5		0
89		91		68		1		2		0
90		46		69		0		5		0
91		77		69		1		2		0
92		47		70		1		5		0
93		88		70		0		2		0
94		48		71		1		5		0
95		85		71		0		2		0
96		49		72		1		5		0
97		78		72		0		2		0
98		50		73		0		5		0
99		81		73		1		2		0
100		51		74		1		5		0
101		81		74		0		2		0
102		52		75		1		5		0
103		84		75		0		2		0
104		53		76		0		5		0
105		84		76		1		2		0
106		54		77		1		5		0
107		81		77		0		2		0
108		55		78		1		5		0
109		87		78		0		2		0
110		56		79		1		5		0
111		86		79		0		2		0
112		57		80		0		5		0
113		89		80		1		2		0
114		58		81		1		5		0
115		87		81		0		2		0
116		59		82		1		5		0
117		78		82		0		2		0
118		60		83		0		5		0
119		79		83		1		2		0
120		61		84		1		5		0
121		87		84		0		2		0
122		62		85		0		5		0
123		87		85		1		2		0
124		63		86		1		5		0
125		82		86		0		2		0
126		64		87		0		5		0
127		94		87		1		2		0
128		65		88		0		5		0
129		78		88		1		2		0
130		66		89		1		5		0
131		94		89		0		2		0
132		67		90		0		5		0
133		77		90		1		2		0
134		68		91		1		5		0
135		78		91		0		2		0
136		69		92		1		5		0
137		85		92		0		2		0
138		70		93		1		5		0
139		85		93		0		2		0
140		71		94		1		5		0
141		92		94		0		2		0
142		72		95		0		5		0
143		77		95		1		2		0
144		73		96		1		5		0
145		96		96		0		2		0
146		74		97		0		5		0
147		84		97		1		2		0
148		75		98		1		5		0
149		78		98		0		2		0
150		76		99		1		5		0
151		78		99		0		2		0
